data/solutions/recovery/wellformed/moderate/flexible/wellformed_moderate_instance89/50.sol
Elapsed time: 7.3
Upper bound: 7243.0
Planning weighted value: 461145.0
C[0]=7243.0
C[1]=7237.0
C[2]=7231.0
C[3]=7227.0
C[4]=7221.0
C[5]=7204.0
y[0]=0
y[1]=4
y[2]=2
y[3]=3
y[4]=3
y[5]=5
y[6]=2
y[7]=4
y[8]=0
y[9]=0
y[10]=3
y[11]=2
y[12]=5
y[13]=3
y[14]=3
y[15]=5
y[16]=1
y[17]=2
y[18]=4
y[19]=1
y[20]=2
y[21]=3
y[22]=3
y[23]=5
y[24]=0
y[25]=0
y[26]=3
y[27]=2
y[28]=5
y[29]=2
y[30]=0
y[31]=1
y[32]=3
y[33]=2
y[34]=1
y[35]=0
y[36]=5
y[37]=1
y[38]=4
y[39]=5
y[40]=1
y[41]=4
