data/solutions/recovery/wellformed/moderate/flexible/wellformed_moderate_instance89/50.log

Log started (V12.6.3.0) Fri Apr 20 19:36:16 2018

New value for default parallel thread count: 1

Problem '/tmp/tmpAuFLOS.pyomo.lp' read.
Read time = 0.00 sec. (0.13 ticks)

Problem name         : /tmp/tmpAuFLOS.pyomo.lp
Objective sense      : Minimize
Variables            :     260  [Nneg: 1,  Binary: 252,  General Integer: 7]
Objective nonzeros   :       1
Linear constraints   :      97  [Less: 48,  Equal: 49]
  Nonzeros           :    8917
  RHS nonzeros       :      85

Variables            : Min LB: 0.000000         Max UB: 1.000000       
Objective nonzeros   : Min   : 1.000000         Max   : 1.000000       
Linear constraints   :
  Nonzeros           : Min   : 1.000000         Max   : 1980.000       
  RHS nonzeros       : Min   : 1.000000         Max   : 5.000000       
Tried aggregator 2 times.
MIP Presolve eliminated 42 rows and 6 columns.
Aggregator did 7 substitutions.
Reduced MIP has 48 rows, 247 columns, and 693 nonzeros.
Reduced MIP has 246 binaries, 1 generals, 0 SOSs, and 0 indicators.
Presolve time = 0.00 sec. (2.20 ticks)
Found incumbent of value 43363.000000 after 0.00 sec. (2.69 ticks)
Probing time = 0.00 sec. (0.26 ticks)
Cover probing fixed 0 vars, tightened 4 bounds.
Tried aggregator 1 time.
Reduced MIP has 48 rows, 247 columns, and 693 nonzeros.
Reduced MIP has 246 binaries, 1 generals, 0 SOSs, and 0 indicators.
Presolve time = 0.00 sec. (0.41 ticks)
Probing time = 0.00 sec. (0.18 ticks)
Clique table members: 41.
MIP emphasis: balance optimality and feasibility.
MIP search method: dynamic search.
Parallel mode: none, using 1 thread.
Root relaxation solution time = 0.00 sec. (0.19 ticks)

        Nodes                                         Cuts/
   Node  Left     Objective  IInf  Best Integer    Best Bound    ItCnt     Gap

*     0+    0                        43363.0000     1980.0000            95.43%
      0     0     7227.1667     9    43363.0000     7227.1667        9   83.33%
*     0+    0                         8219.0000     7227.1667            12.07%
      0     0     7228.0000    12     8219.0000      Fract: 7       31   12.06%
*     0+    0                         7892.0000     7228.0000             8.41%
      0     0     7228.0000    12     7892.0000       Cuts: 9       48    8.41%
      0     0     7228.0000    15     7892.0000      Cuts: 10       73    8.41%
*     0+    0                         7623.0000     7228.0000             5.18%
*     0+    0                         7478.0000     7228.0000             3.34%
      0     2     7228.0000     9     7478.0000     7228.0000       73    3.34%
Elapsed time = 0.02 sec. (14.63 ticks, tree = 0.01 MB, solutions = 5)
*   100+   67                         7432.0000     7228.0000             2.74%
*   766   548      integral     0     7418.0000     7228.0000     3719    2.56%
*   866+  606                         7398.0000     7228.0000             2.30%
*   976+  625                         7337.0000     7228.0000             1.49%
*   977+  611                         7323.0000     7228.0000             1.30%
*  1078+  319                         7291.0000     7228.0000             0.86%
*  1078+  226                         7287.0000     7228.0000             0.81%
   1278   174     7269.2708    21     7287.0000     7228.0000     6568    0.81%
   1279   173     7277.7253    20     7287.0000     7228.0000     6573    0.81%
   1280   173     7277.7253    19     7287.0000     7228.0000     6577    0.81%
   1281   171     7277.7253    19     7287.0000     7228.0000     6578    0.81%
   1282   169        cutoff           7287.0000     7228.0000     6655    0.81%
   1283   167        cutoff           7287.0000     7228.0000     6697    0.81%
   1284   165        cutoff           7287.0000     7228.0000     6722    0.81%
   1285   163        cutoff           7287.0000     7228.0000     6762    0.81%
   1286   161        cutoff           7287.0000     7228.0000     6821    0.81%
*  2078+  581                         7283.0000     7228.0000             0.76%
   2078   583     7269.4673    20     7283.0000     7228.0000    17326    0.76%
Elapsed time = 0.90 sec. (1045.13 ticks, tree = 0.18 MB, solutions = 13)
*  2178+  598                         7276.0000     7228.0000             0.66%
*  2278+  554                         7270.0000     7228.0000             0.58%
*  2278+  362                         7251.0000     7228.0000             0.32%
   3552  1304     7248.0293    45     7251.0000     7228.0000    44097    0.32%
   3553  1305     7248.4021    43     7251.0000     7228.0000    44111    0.32%
   3554  1304        cutoff           7251.0000     7228.0000    44120    0.32%
   3555  1305     7248.6858    46     7251.0000     7228.0000    44130    0.32%
   3556  1306     7248.9309    42     7251.0000     7228.0000    44136    0.32%
   3557  1305        cutoff           7251.0000     7228.0000    44147    0.32%
   3558  1304        cutoff           7251.0000     7228.0000    44149    0.32%
   3559  1305     7228.0000    50     7251.0000     7228.0000    44254    0.32%
   3560  1306     7228.0000    44     7251.0000     7228.0000    44375    0.32%
   3561  1307     7228.0000    47     7251.0000     7228.0000    44526    0.32%
Elapsed time = 1.63 sec. (2022.09 ticks, tree = 0.40 MB, solutions = 16)
   4382  1698     7243.2824    36     7251.0000     7228.0000    73224    0.32%
   4383  1699     7244.1439    43     7251.0000     7228.0000    73267    0.32%
   4384  1700     7244.3150    44     7251.0000     7228.0000    73290    0.32%
   4385  1701     7246.0314    36     7251.0000     7228.0000    73319    0.32%
   4386  1702     7246.1522    44     7251.0000     7228.0000    73327    0.32%
   4387  1701        cutoff           7251.0000     7228.0000    73334    0.32%
   4388  1701     7246.7806    32     7251.0000     7228.0000    73344    0.32%
   4389  1702     7247.3410    30     7251.0000     7228.0000    73358    0.32%
   4390  1702     7248.6857    29     7251.0000     7228.0000    73359    0.32%
   4391  1702     7248.6931    28     7251.0000     7228.0000    73377    0.32%
Elapsed time = 2.27 sec. (2982.48 ticks, tree = 0.62 MB, solutions = 16)
   5073  1892     7238.5539    45     7251.0000     7228.0000   102845    0.32%
   5074  1893     7239.8866    45     7251.0000     7228.0000   102875    0.32%
   5075  1894     7241.6058    44     7251.0000     7228.0000   102903    0.32%
   5076  1895     7242.9743    52     7251.0000     7228.0000   102941    0.32%
   5077  1896     7247.1760    39     7251.0000     7228.0000   102993    0.32%
   5078  1895        cutoff           7251.0000     7228.0000   102996    0.32%
   5079  1894        cutoff           7251.0000     7228.0000   103008    0.32%
   5080  1893        cutoff           7251.0000     7228.0000   103272    0.32%
   5081  1892        cutoff           7251.0000     7228.0000   103369    0.32%
   5082  1891        cutoff           7251.0000     7228.0000   103525    0.32%
Elapsed time = 2.92 sec. (3955.35 ticks, tree = 0.85 MB, solutions = 16)
   5850  2223     7237.9289    49     7251.0000     7228.0000   132083    0.32%
   5851  2224     7237.9908    46     7251.0000     7228.0000   132084    0.32%
   5852  2225     7237.9989    51     7251.0000     7228.0000   132087    0.32%
   5853  2226     7239.7382    41     7251.0000     7228.0000   132096    0.32%
   5854  2227     7240.1691    48     7251.0000     7228.0000   132106    0.32%
   5855  2228     7240.5935    47     7251.0000     7228.0000   132114    0.32%
   5856  2229     7240.6289    44     7251.0000     7228.0000   132116    0.32%
   5857  2230     7242.6533    40     7251.0000     7228.0000   132135    0.32%
   5858  2231     7242.9451    40     7251.0000     7228.0000   132146    0.32%
   5859  2232     7243.0718    42     7251.0000     7228.0000   132160    0.32%
Elapsed time = 3.56 sec. (4914.56 ticks, tree = 1.15 MB, solutions = 16)
   6541  2506     7228.0000    42     7251.0000     7228.0000   159698    0.32%
   6542  2507     7228.0000    37     7251.0000     7228.0000   159706    0.32%
   6543  2508     7229.3256    50     7251.0000     7228.0000   159868    0.32%
   6544  2509     7228.0000    28     7251.0000     7228.0000   159908    0.32%
   6545  2510     7228.0000    26     7251.0000     7228.0000   159909    0.32%
   6546  2511     7228.0000    29     7251.0000     7228.0000   160058    0.32%
   6547  2512     7228.0000    27     7251.0000     7228.0000   160059    0.32%
   6548  2511        cutoff           7251.0000     7228.0000   160152    0.32%
   6549  2512     7228.0000    26     7251.0000     7228.0000   160155    0.32%
   6550  2513     7228.0000    37     7251.0000     7228.0000   160237    0.32%
Elapsed time = 4.20 sec. (5888.33 ticks, tree = 1.40 MB, solutions = 16)
   7325  2899     7247.3458    50     7251.0000     7228.0000   188993    0.32%
   7326  2900     7247.3462    49     7251.0000     7228.0000   188994    0.32%
   7327  2901     7247.5867    44     7251.0000     7228.0000   189021    0.32%
   7328  2902     7248.3780    44     7251.0000     7228.0000   189033    0.32%
   7329  2903     7248.3877    42     7251.0000     7228.0000   189035    0.32%
   7330  2904     7248.6782    41     7251.0000     7228.0000   189044    0.32%
   7331  2903        cutoff           7251.0000     7228.0000   189055    0.32%
   7332  2902        cutoff           7251.0000     7228.0000   189060    0.32%
   7333  2903     7234.5611    40     7251.0000     7228.0000   189215    0.32%
   7334  2904     7235.3641    39     7251.0000     7228.0000   189227    0.32%
Elapsed time = 4.84 sec. (6857.12 ticks, tree = 2.12 MB, solutions = 16)
   8075  3297        cutoff           7251.0000     7229.2960   212569    0.30%
   8076  3296        cutoff           7251.0000     7229.3153   212698    0.30%
   8077  3295        cutoff           7251.0000     7229.3154   212768    0.30%
   8078  3294        cutoff           7251.0000     7229.3201   212874    0.30%
   8079  3293        cutoff           7251.0000     7229.3286   212982    0.30%
   8080  3294     7244.3760    57     7251.0000     7229.3488   213107    0.30%
   8081  3295     7245.1013    52     7251.0000     7229.3488   213138    0.30%
   8082  3294        cutoff           7251.0000     7229.3488   213154    0.30%
   8083  3294     7248.3831    46     7251.0000     7229.3488   213203    0.30%
   8084  3295     7248.3831    45     7251.0000     7229.3488   213205    0.30%
Elapsed time = 5.48 sec. (7839.42 ticks, tree = 2.47 MB, solutions = 16)
*  8487  2023      integral     0     7243.0000     7230.5325   223989    0.17%
   9182  1515        cutoff           7243.0000     7233.5620   240409    0.13%
   9183  1514        cutoff           7243.0000     7233.5647   240410    0.13%
   9184  1513        cutoff           7243.0000     7233.5732   240439    0.13%
   9185  1512        cutoff           7243.0000     7233.5806   240451    0.13%
   9186  1511        cutoff           7243.0000     7233.5910   240475    0.13%
   9187  1510        cutoff           7243.0000     7233.6014   240490    0.13%
   9188  1509        cutoff           7243.0000     7233.6120   240497    0.13%
   9189  1508        cutoff           7243.0000     7233.6177   240502    0.13%
   9190  1507        cutoff           7243.0000     7233.6186   240516    0.13%
   9191  1506        cutoff           7243.0000     7233.6248   240529    0.13%
Elapsed time = 6.11 sec. (8799.85 ticks, tree = 1.19 MB, solutions = 17)
  10659   158        cutoff           7243.0000     7241.1024   257074    0.03%
  10660   157        cutoff           7243.0000     7241.1026   257077    0.03%
  10661   156        cutoff           7243.0000     7241.1050   257079    0.03%
  10662   155        cutoff           7243.0000     7241.1061   257082    0.03%
  10663   154    infeasible           7243.0000     7241.1067   257082    0.03%
  10664   153        cutoff           7243.0000     7241.1147   257085    0.03%
  10665   152        cutoff           7243.0000     7241.1202   257087    0.03%
  10666   151        cutoff           7243.0000     7241.1219   257089    0.03%
  10667   150        cutoff           7243.0000     7241.1264   257090    0.03%

Cover cuts applied:  96
Mixed integer rounding cuts applied:  107
Zero-half cuts applied:  2
Gomory fractional cuts applied:  5

Root node processing (before b&c):
  Real time             =    0.02 sec. (14.64 ticks)
Sequential b&c:
  Real time             =    7.25 sec. (10060.38 ticks)
                          ------------
Total (root+branch&cut) =    7.27 sec. (10075.02 ticks)

Solution pool: 17 solutions saved.

MIP - Integer optimal solution:  Objective =  7.2430000000e+03
Solution time =    7.27 sec.  Iterations = 257551  Nodes = 10823
Deterministic time = 10075.02 ticks  (1386.37 ticks/sec)


Incumbent solution written to file '/tmp/tmp167Img.cplex.sol'.
